1980
75
25
48
608
1111
363
458
132
235
454
138
270
1190
88
152
1113
1823
138
19
61
105
161
24
18
94
118
50
771
1808
136
749
120
306
205
41
427
40
521
23
60
163
697
190
240
1183
292
253
64
79
171
386
23
0
0
968
2464
131
78
24
45
23
40
281
271
475
956
250
50
58
1264
23
108
328
105
1321
102
73
568
141
522
490
212
1768
1288
33
55
1933
197
815
0
813
123
78
37
96
1818
783
302
587
